NAME : tsp_397_sol.txt
COMMENT : OR-Tools Guided Local Search
TYPE : TOUR
DIMENSION : 50
COST : 5842
STATUS : ROUTING_SUCCESS
GAP : 0.00% (Reference Solution)
TOUR_SECTION
1
35
7
37
33
19
31
8
11
45
25
48
12
27
38
14
41
10
30
6
13
2
23
47
44
24
28
21
3
4
20
50
40
15
46
39
29
22
34
16
49
26
18
42
9
36
17
43
32
5
-1
